38 -18 -46 23 -35 -35 0
-18 -46 23 27 -35 -35 0
-35 0
33 8 11 44 -18 -40 35 0
33 38 -24 9 11 44 -18 -40 35 0
-28 8 40 11 -18 35 0
33 -28 38 6 -24 9 11 44 -18 35 0
33 35 -28 38 9 11 44 -18 -46 35 0
35 0
0
